set Zaklady:= GARY CLEV PITT;
set Sklady:= FRA DET LAN WIN STL FRE LAF;

param MozliwosciProdukcyjne:=
GARY 1400
CLEV 2600
PITT 2900;

param ZapotrzebowaniaSkladow:=
FRA 900 
DET 1200
LAN 600
WIN 400
STL 1700
FRE 1100
LAF 1000;


param KosztyTransportu:
		GARY CLEV PITT:=
FRA      39   27   24
DET      14   9    14
LAN      11   12   17
WIN      14   9    13
STL      16   26   28
FRE      82   95   99
LAF      8    17   20;



